Version identifier: 20.1.0.0 | 2020-11-10 | 9bedb6d68
Tried aggregator 3 times.
MIP Presolve eliminated 687 rows and 397 columns.
MIP Presolve modified 1320 coefficients.
Aggregator did 85 substitutions.
Reduced MIP has 509 rows, 425 columns, and 1614 nonzeros.
Reduced MIP has 104 binaries, 321 generals, 0 SOSs, and 0 indicators.
Presolve time = 0.01 sec. (3.20 ticks)
Found incumbent of value 39.000000 after 0.01 sec. (5.17 ticks)
Probing fixed 15 vars, tightened 134 bounds.
Probing time = 0.00 sec. (0.38 ticks)
Tried aggregator 2 times.
Detecting symmetries...
MIP Presolve eliminated 219 rows and 31 columns.
MIP Presolve modified 50 coefficients.
Aggregator did 11 substitutions.
Reduced MIP has 279 rows, 383 columns, and 907 nonzeros.
Reduced MIP has 130 binaries, 253 generals, 0 SOSs, and 0 indicators.
Presolve time = 0.00 sec. (1.32 ticks)
Probing time = 0.00 sec. (0.08 ticks)
Clique table members: 1.
MIP emphasis: balance optimality and feasibility.
MIP search method: dynamic search.
Parallel mode: deterministic, using up to 24 threads.
Root relaxation solution time = 0.00 sec. (0.89 ticks)

        Nodes                                         Cuts/
   Node  Left     Objective  IInf  Best Integer    Best Bound    ItCnt     Gap

*     0+    0                           39.0000        0.0000           100.00%
      0     0        0.4000    29       39.0000        0.4000      129   98.97%
      0     0        4.1532    68       39.0000      Cuts: 57      227   89.35%
*     0+    0                           19.0000        4.1532            78.14%
      0     0        4.7667    96       19.0000      Cuts: 68      304   74.91%
      0     0        5.1667    57       19.0000      Cuts: 50      343   72.81%
      0     0        5.9167    99       19.0000      Cuts: 36      383   68.86%
      0     0        6.3333   122       19.0000      Cuts: 36      427   66.67%
      0     0        6.4643   105       19.0000      Cuts: 41      453   65.98%
      0     0        7.1481   105       19.0000      Cuts: 35      473   62.38%
      0     0        7.1786   135       19.0000      Cuts: 44      499   62.22%
      0     0        7.2500   108       19.0000      Cuts: 37      518   61.84%
      0     0        7.3699   139       19.0000      Cuts: 35      548   61.21%
      0     0        7.4651   132       19.0000      Cuts: 27      569   60.71%
      0     0        7.4651   144       19.0000      Cuts: 34      592   60.71%
      0     0        7.5000   104       19.0000      Cuts: 10      614   60.53%
      0     0        7.5000   114       19.0000      Cuts: 53      646   60.53%
*     0+    0                           15.0000        7.5000            50.00%
      0     0        cutoff             15.0000       15.0000      646    0.00%
Elapsed time = 0.36 sec. (52.06 ticks, tree = 0.01 MB, solutions = 3)

Implied bound cuts applied:  4
Mixed integer rounding cuts applied:  7
Zero-half cuts applied:  30
Gomory fractional cuts applied:  4

Root node processing (before b&c):
  Real time             =    0.36 sec. (52.11 ticks)
Parallel b&c, 24 threads:
  Real time             =    0.00 sec. (0.00 ticks)
  Sync time (average)   =    0.00 sec.
  Wait time (average)   =    0.00 sec.
                          ------------
Total (root+branch&cut) =    0.36 sec. (52.11 ticks)

Solution status = Optimal
Solution LB = 15
Solution UB = 15
Runtime = 0.368957 seconds
	Command being timed: "/home/min/git_repos/CS598MEBProject/CNT-ILP/build/cnt -s 2 ./output/k6_n15/simC_c1_k6_n15_u3_s2_del02.input-right.cnp"
	User time (seconds): 5.83
	System time (seconds): 0.04
	Percent of CPU this job got: 1543%
	Elapsed (wall clock) time (h:mm:ss or m:ss): 0:00.38
	Average shared text size (kbytes): 0
	Average unshared data size (kbytes): 0
	Average stack size (kbytes): 0
	Average total size (kbytes): 0
	Maximum resident set size (kbytes): 57204
	Average resident set size (kbytes): 0
	Major (requiring I/O) page faults: 0
	Minor (reclaiming a frame) page faults: 11445
	Voluntary context switches: 2539
	Involuntary context switches: 754
	Swaps: 0
	File system inputs: 0
	File system outputs: 16
	Socket messages sent: 0
	Socket messages received: 0
	Signals delivered: 0
	Page size (bytes): 4096
	Exit status: 0
